args: ../partial/bp/M10.cnf cubes/M10.cubes 100 50 1
iteration: 0
running icadical
lim: 100
refuted: 194885, progress: 194885/568214

iteration: 1
running icadical
lim: 100
refuted: 290148, progress: 485033/568214

iteration: 2
running icadical
lim: 100
refuted: 83181, progress: 568214/568214

c --- [ banner ] -------------------------------------------------------------
c 
c CaDiCaL Radically Simplified CDCL SAT Solver
c Copyright (c) 2016-2019 Armin Biere, JKU Linz
c 
c Version 1.2.1 92d72896c49b30ad2d50c8e1061ca0681cd23e60
c g++ (GCC) 4.8.5 20150623 (Red Hat 4.8.5-39) -Wall -Wextra -O3 -DNDEBUG -std=c++0x
c Thu Jan 30 22:37:32 EST 2020 Linux lov6.int.autonlab.org 3.10.0-1062.4.1.el7.x86_64 x86_64
c 
c --- [ parsing input ] ------------------------------------------------------
c 
c reading DIMACS file from '<stdin>' (use '-h' for a list of common options)
c found 'p cnf 6903 282647' header
c parsed 850861 clauses in 1.09 seconds process time
c disconnecting from '<stdin>'
c after reading 13996392 bytes 13.3 MB
c 
c --- [ options ] ------------------------------------------------------------
c 
c   --report=false                 (different from default 'true')
c 
c --- [ solving ] ------------------------------------------------------------
c 
c 
c --- [ result ] -------------------------------------------------------------
c 
s UNSATISFIABLE
c 
c --- [ run-time profiling ] -------------------------------------------------
c 
c process time taken by individual solving procedures
c (percentage relative to process time for solving)
c 
c         0.00   98.58% search
c         0.00   69.20% unstable
c         0.00   29.13% lucky
c         0.00    0.00% simplify
c   =================================
c         0.00    0.19% solve
c 
c last line shows process time for solving
c (percentage relative to total process time)
c 
c --- [ statistics ] ---------------------------------------------------------
c 
c chronological:                 5        55.56 %  of conflicts
c conflicts:                     9      4420.43    per second
c decisions:                    18      8840.86    per second
c fixed:                      3456        50.07 %  of all variables
c learned:                       8        88.89 %  per conflict
c minimized:                     0         0.00 %  learned literals
c propagations:                 47         0.02 M  per second
c restarts:                      1         9.00    interval
c 
c seconds are measured in process time for solving
c 
c --- [ resources ] ----------------------------------------------------------
c 
c total process time since initialization:         1.09    seconds
c total real time since initialization:            1.65    seconds
c maximum resident set size of process:           72.74    MB
c 
c --- [ shutting down ] ------------------------------------------------------
c 
c exit 20

real	697m20.469s
user	696m41.476s
sys	1m37.637s
